p cnf 256 955
-1 -2 0
-1 4 0
-1 -3 0
-1 5 0
-6 -2 0
-6 -4 0
-6 3 0
-6 7 0
-8 -2 0
-8 -4 0
-8 -3 0
-8 9 0
7 -10 0
7 -5 0
10 5 -7 0
9 -11 0
9 -10 0
9 -5 0
11 10 5 -9 0
12 -13 0
12 -11 0
12 -10 0
12 -5 0
13 11 10 5 -12 0
-14 2 0
-14 12 0
15 16 3 0
15 -16 -3 0
-15 16 -3 0
-15 -16 3 0
18 19 15 0
18 -19 -15 0
-18 19 -15 0
-18 -19 15 0
21 16 0
21 3 0
-16 -3 -21 0
22 17 4 0
22 -17 -4 0
-22 17 -4 0
-22 -17 4 0
23 22 21 0
23 -22 -21 0
-23 22 -21 0
-23 -22 21 0
24 20 23 0
24 -20 -23 0
-24 20 -23 0
-24 -20 23 0
25 16 -19 0
25 -16 19 0
-25 16 19 0
-25 -16 -19 0
26 17 -20 0
26 -17 20 0
-26 17 20 0
-26 -17 -20 0
27 -26 0
27 -25 0
26 25 -27 0
-28 29 0
-28 27 0
30 -4 0
30 -3 0
4 3 -30 0
-31 2 0
-31 30 0
32 2 -29 0
32 -2 29 0
-32 2 29 0
-32 -2 -29 0
33 -19 -16 0
33 19 16 0
-33 -19 16 0
-33 19 -16 0
34 20 -19 0
34 -20 19 0
-34 20 19 0
-34 -20 -19 0
35 34 -17 0
35 -34 17 0
-35 34 17 0
-35 -34 -17 0
36 -35 0
36 -33 0
35 33 -36 0
37 20 0
37 19 0
-20 -19 -37 0
-37 -36 38 0
-38 37 0
-38 36 0
39 -17 0
39 -16 0
17 16 -39 0
-20 -19 -39 40 0
-40 20 0
-40 19 0
-40 39 0
41 -40 0
41 -38 0
40 38 -41 0
-4 -3 42 0
-42 4 0
-42 3 0
43 42 41 0
43 -42 -41 0
-43 42 -41 0
-43 -42 41 0
-17 -16 44 45 0
-45 17 0
-45 16 0
-45 -44 0
-17 16 46 47 0
-47 17 0
-47 -16 0
-47 -46 0
17 -16 48 49 0
-49 -17 0
-49 16 0
-49 -48 0
17 16 50 51 0
-51 -17 0
-51 -16 0
-51 -50 0
52 -51 0
52 -49 0
52 -47 0
52 -45 0
51 49 47 45 -52 0
53 5 52 0
53 -5 -52 0
-53 5 -52 0
-53 -5 52 0
-17 -16 46 54 0
-54 17 0
-54 16 0
-54 -46 0
-17 16 48 55 0
-55 17 0
-55 -16 0
-55 -48 0
17 -16 50 56 0
-56 -17 0
-56 16 0
-56 -50 0
17 16 44 57 0
-57 -17 0
-57 -16 0
-57 -44 0
58 -57 0
58 -56 0
58 -55 0
58 -54 0
57 56 55 54 -58 0
59 10 58 0
59 -10 -58 0
-59 10 -58 0
-59 -10 58 0
-17 -16 48 60 0
-60 17 0
-60 16 0
-60 -48 0
-17 16 50 61 0
-61 17 0
-61 -16 0
-61 -50 0
17 -16 44 62 0
-62 -17 0
-62 16 0
-62 -44 0
17 16 46 63 0
-63 -17 0
-63 -16 0
-63 -46 0
64 -63 0
64 -62 0
64 -61 0
64 -60 0
63 62 61 60 -64 0
65 11 64 0
65 -11 -64 0
-65 11 -64 0
-65 -11 64 0
66 -65 0
66 -59 0
66 -53 0
66 -43 0
66 -32 0
66 -31 0
66 -28 0
66 -24 0
66 -18 0
66 -14 0
66 -8 0
66 -6 0
66 -1 0
65 59 53 43 32 31 28 24 18 14 8 6 1 -66 0
-17 -16 50 67 0
-67 17 0
-67 16 0
-67 -50 0
-17 16 44 68 0
-68 17 0
-68 -16 0
-68 -44 0
17 -16 46 69 0
-69 -17 0
-69 16 0
-69 -46 0
17 16 48 70 0
-70 -17 0
-70 -16 0
-70 -48 0
71 -70 0
71 -69 0
71 -68 0
71 -67 0
70 69 68 67 -71 0
72 13 71 0
72 -13 -71 0
-72 13 -71 0
-72 -13 71 0
-73 -75 -74 76 0
-76 73 0
-76 75 0
-76 74 0
77 -78 0
77 -76 0
77 -79 0
78 76 79 -77 0
80 -82 81 83 0
-83 -80 0
-83 82 0
-83 -81 0
-80 -82 -81 84 0
-84 80 0
-84 82 0
-84 81 0
85 -84 0
85 -83 0
84 83 -85 0
-86 -87 -88 -85 78 0
-78 86 0
-78 87 0
-78 88 0
-78 85 0
89 -78 0
89 -90 0
89 75 0
89 74 0
78 90 -75 -74 -89 0
91 -80 0
91 82 0
91 -81 0
80 -82 81 -91 0
92 80 0
92 82 0
92 81 0
-80 -82 -81 -92 0
-92 -91 93 0
-93 92 0
-93 91 0
94 -95 0
94 -96 0
94 -97 0
94 -93 0
94 -98 0
95 96 97 93 98 -94 0
-94 -89 -77 99 0
-99 94 0
-99 89 0
-99 77 0
-73 -75 74 100 0
-100 73 0
-100 75 0
-100 -74 0
101 -102 0
101 -100 0
101 -103 0
102 100 103 -101 0
80 82 -81 104 0
-104 -80 0
-104 -82 0
-104 81 0
-80 -82 81 105 0
-105 80 0
-105 82 0
-105 -81 0
106 -105 0
106 -104 0
105 104 -106 0
-86 -87 -88 -106 102 0
-102 86 0
-102 87 0
-102 88 0
-102 106 0
107 -102 0
107 -90 0
107 75 0
107 -74 0
102 90 -75 74 -107 0
108 -80 0
108 -82 0
108 81 0
80 82 -81 -108 0
109 80 0
109 82 0
109 -81 0
-80 -82 81 -109 0
-109 -108 110 0
-110 109 0
-110 108 0
111 -95 0
111 -96 0
111 -97 0
111 -110 0
111 -98 0
95 96 97 110 98 -111 0
-111 -107 -101 112 0
-112 111 0
-112 107 0
-112 101 0
-73 75 -74 113 0
-113 73 0
-113 -75 0
-113 74 0
114 -115 0
114 -113 0
114 -116 0
115 113 116 -114 0
80 82 81 117 0
-117 -80 0
-117 -82 0
-117 -81 0
-80 82 -81 118 0
-118 80 0
-118 -82 0
-118 81 0
119 -118 0
119 -117 0
118 117 -119 0
-86 -87 -88 -119 115 0
-115 86 0
-115 87 0
-115 88 0
-115 119 0
120 -115 0
120 -90 0
120 -75 0
120 74 0
115 90 75 -74 -120 0
121 -80 0
121 -82 0
121 -81 0
80 82 81 -121 0
122 80 0
122 -82 0
122 81 0
-80 82 -81 -122 0
-122 -121 123 0
-123 122 0
-123 121 0
124 -95 0
124 -96 0
124 -97 0
124 -123 0
124 -98 0
95 96 97 123 98 -124 0
-124 -120 -114 125 0
-125 124 0
-125 120 0
-125 114 0
-73 75 74 126 0
-126 73 0
-126 -75 0
-126 -74 0
127 -128 0
127 -126 0
127 -129 0
128 126 129 -127 0
80 -82 -81 130 0
-130 -80 0
-130 82 0
-130 81 0
-80 82 81 131 0
-131 80 0
-131 -82 0
-131 -81 0
132 -131 0
132 -130 0
131 130 -132 0
-86 -87 -88 -132 128 0
-128 86 0
-128 87 0
-128 88 0
-128 132 0
133 -128 0
133 -90 0
133 -75 0
133 -74 0
128 90 75 74 -133 0
134 -80 0
134 82 0
134 81 0
80 -82 -81 -134 0
135 80 0
135 -82 0
135 -81 0
-80 82 81 -135 0
-135 -134 136 0
-136 135 0
-136 134 0
137 -95 0
137 -96 0
137 -97 0
137 -136 0
137 -98 0
95 96 97 136 98 -137 0
-137 -133 -127 138 0
-138 137 0
-138 133 0
-138 127 0
139 -140 0
139 -82 0
140 82 -139 0
141 -142 0
141 -143 0
142 143 -141 0
-144 -141 145 0
-145 144 0
-145 141 0
146 -80 0
146 -95 0
146 -96 0
146 -97 0
146 -145 0
80 95 96 97 145 -146 0
-146 -139 147 0
-147 146 0
-147 139 0
80 -86 -87 -88 140 0
-140 -80 0
-140 86 0
-140 87 0
-140 88 0
148 -140 0
148 -81 0
140 81 -148 0
149 -142 0
149 81 0
142 -81 -149 0
-144 -149 150 0
-150 144 0
-150 149 0
151 -80 0
151 -95 0
151 -96 0
151 -97 0
151 -150 0
80 95 96 97 150 -151 0
-151 -148 152 0
-152 151 0
-152 148 0
153 -154 0
153 -75 0
154 75 -153 0
155 75 -74 0
155 -75 74 0
-155 75 74 0
-155 -75 -74 0
156 -157 0
156 -155 0
157 155 -156 0
-158 -156 159 0
-159 158 0
-159 156 0
160 -161 0
160 -90 0
160 -159 0
161 90 159 -160 0
-160 -153 162 0
-162 160 0
-162 153 0
163 74 -81 0
163 -74 81 0
-163 74 81 0
-163 -74 -81 0
164 75 -82 0
164 -75 82 0
-164 75 82 0
-164 -75 -82 0
165 -164 0
165 -163 0
164 163 -165 0
-165 -73 154 0
-154 165 0
-154 73 0
166 -154 0
166 -74 0
154 74 -166 0
-75 -74 157 0
-157 75 0
-157 74 0
167 -157 0
167 74 0
157 -74 -167 0
-158 -167 168 0
-168 158 0
-168 167 0
169 -161 0
169 -90 0
169 -168 0
161 90 168 -169 0
-169 -166 170 0
-170 169 0
-170 166 0
171 -90 0
171 -161 0
90 161 -171 0
-73 -171 172 0
-172 73 0
-172 171 0
-174 173 175 0
-175 174 0
-175 -173 0
176 -95 0
176 -96 0
176 -97 0
176 -175 0
176 -177 0
95 96 97 175 177 -176 0
178 -95 0
178 -96 0
178 -97 0
178 174 0
178 -173 0
178 -98 0
95 96 97 -174 173 98 -178 0
-86 -87 -88 -178 -176 179 0
-179 86 0
-179 87 0
-179 88 0
-179 178 0
-179 176 0
174 -173 180 0
-180 -174 0
-180 173 0
181 -95 0
181 -96 0
181 -97 0
181 -180 0
181 -182 0
95 96 97 180 182 -181 0
183 -95 0
183 -96 0
183 -97 0
183 -174 0
183 173 0
183 -98 0
95 96 97 174 -173 98 -183 0
184 -90 0
184 -177 0
90 177 -184 0
-184 -183 -181 185 0
-185 184 0
-185 183 0
-185 181 0
186 174 173 187 0
-187 -186 0
-187 -174 0
-187 -173 0
188 -95 0
188 -96 0
188 -97 0
188 -187 0
188 -189 0
95 96 97 187 189 -188 0
190 -95 0
190 -96 0
190 -97 0
190 -186 0
190 -174 0
190 -173 0
190 -98 0
95 96 97 186 174 173 98 -190 0
191 -90 0
191 -182 0
90 182 -191 0
-191 -190 -188 192 0
-192 191 0
-192 190 0
-192 188 0
193 -95 0
193 -96 0
193 -97 0
193 -186 0
193 -194 0
95 96 97 186 194 -193 0
195 -95 0
195 -96 0
195 -97 0
195 186 0
195 -98 0
95 96 97 -186 98 -195 0
196 -90 0
196 -189 0
90 189 -196 0
-196 -195 -193 197 0
-197 196 0
-197 195 0
-197 193 0
198 174 -173 0
198 -174 173 0
-198 174 173 0
-198 -174 -173 0
199 -200 0
199 -201 0
199 -95 0
199 -96 0
199 -97 0
199 -186 0
199 -198 0
200 201 95 96 97 186 198 -199 0
202 174 173 0
202 -174 -173 0
-202 174 -173 0
-202 -174 173 0
203 -200 0
203 -201 0
203 -90 0
203 -202 0
200 201 90 202 -203 0
-204 -203 -205 -199 206 0
-206 204 0
-206 203 0
-206 205 0
-206 199 0
207 -200 0
207 -201 0
207 -95 0
207 -96 0
207 -97 0
207 -186 0
207 173 0
200 201 95 96 97 186 -173 -207 0
205 -200 0
205 -201 0
205 -95 0
205 -96 0
205 -97 0
205 186 0
200 201 95 96 97 -186 -205 0
-86 -87 -88 -174 -173 201 0
-201 86 0
-201 87 0
-201 88 0
-201 174 0
-201 173 0
208 -200 0
208 -201 0
208 -90 0
208 173 0
200 201 90 -173 -208 0
204 -90 0
204 -174 0
204 -173 0
90 174 173 -204 0
-204 -208 -205 -207 209 0
-209 204 0
-209 208 0
-209 205 0
-209 207 0
-73 174 173 200 0
-200 73 0
-200 -174 0
-200 -173 0
88 -95 0
88 -96 0
88 -186 0
88 -80 0
88 -210 0
95 96 186 80 210 -88 0
-86 -87 -88 90 0
-90 86 0
-90 87 0
-90 88 0
211 -90 0
211 -200 0
211 -186 0
90 200 186 -211 0
212 -81 -74 0
212 81 74 0
-212 -81 74 0
-212 81 -74 0
213 143 -75 0
213 -143 75 0
-213 143 75 0
-213 -143 -75 0
214 -213 0
214 -212 0
213 212 -214 0
-144 -214 215 0
-215 144 0
-215 214 0
-82 -81 -216 217 0
-217 82 0
-217 81 0
-217 216 0
87 -217 0
87 -215 0
217 215 -87 0
86 174 0
86 173 0
-174 -173 -86 0
-86 -87 186 80 210 97 0
-97 86 0
-97 87 0
-97 -186 0
-97 -80 0
-97 -210 0
73 -95 0
73 -96 0
73 -97 0
95 96 97 -73 0
-73 -211 218 0
-218 73 0
-218 211 0
219 -186 0
219 -174 0
219 173 0
186 174 -173 -219 0
220 -186 0
220 -174 0
220 -173 0
186 174 173 -220 0
-221 -182 0
-221 -177 0
-222 -189 0
-222 -182 0
-222 -177 0
-223 -194 0
-223 -189 0
-223 -182 0
-223 -177 0
224 74 -173 0
224 -74 173 0
-224 74 173 0
-224 -74 -173 0
-74 -173 225 0
-225 74 0
-225 173 0
226 75 174 0
226 -75 -174 0
-226 75 -174 0
-226 -75 174 0
227 226 225 0
227 -226 -225 0
-227 226 -225 0
-227 -226 225 0
228 74 81 0
228 -74 -81 0
-228 74 -81 0
-228 -74 81 0
229 75 82 0
229 -75 -82 0
-229 75 -82 0
-229 -75 82 0
-229 -228 161 0
-161 229 0
-161 228 0
-230 -174 0
-230 -173 0
231 -81 74 0
231 81 -74 0
-231 -81 -74 0
-231 81 74 0
143 82 -81 0
143 -82 81 0
-143 82 81 0
-143 -82 -81 0
232 143 75 0
232 -143 -75 0
-232 143 -75 0
-232 -143 75 0
-232 -231 233 0
-233 232 0
-233 231 0
-82 -81 142 0
-142 82 0
-142 81 0
234 -142 0
234 -233 0
142 233 -234 0
75 74 235 0
-235 -75 0
-235 -74 0
144 82 0
144 81 0
-82 -81 -144 0
236 82 0
236 81 0
236 -235 0
-82 -81 235 -236 0
-236 -234 96 0
-96 236 0
-96 234 0
-174 -173 95 0
-95 174 0
-95 173 0
237 75 0
237 74 0
237 -103 0
-75 -74 103 -237 0
238 75 0
238 -74 0
238 -116 0
-75 74 116 -238 0
239 -75 0
239 74 0
239 -129 0
75 -74 129 -239 0
240 -75 0
240 -74 0
240 -79 0
75 74 79 -240 0
-240 -239 -238 -237 241 0
-241 240 0
-241 239 0
-241 238 0
-241 237 0
242 75 0
242 74 0
242 -116 0
-75 -74 116 -242 0
243 75 0
243 -74 0
243 -129 0
-75 74 129 -243 0
244 -75 0
244 74 0
244 -79 0
75 -74 79 -244 0
245 -75 0
245 -74 0
245 -103 0
75 74 103 -245 0
-245 -244 -243 -242 246 0
-246 245 0
-246 244 0
-246 243 0
-246 242 0
247 75 0
247 74 0
247 -129 0
-75 -74 129 -247 0
248 75 0
248 -74 0
248 -79 0
-75 74 79 -248 0
249 -75 0
249 74 0
249 -103 0
75 -74 103 -249 0
250 -75 0
250 -74 0
250 -116 0
75 74 116 -250 0
-250 -249 -248 -247 251 0
-251 250 0
-251 249 0
-251 248 0
-251 247 0
158 75 0
158 74 0
-75 -74 -158 0
252 75 0
252 74 0
252 -79 0
-75 -74 79 -252 0
253 75 0
253 -74 0
253 -103 0
-75 74 103 -253 0
254 -75 0
254 74 0
254 -116 0
75 -74 116 -254 0
216 -75 0
216 -74 0
75 74 -216 0
255 -75 0
255 -74 0
255 -129 0
75 74 129 -255 0
-255 -254 -253 -252 256 0
-256 255 0
-256 254 0
-256 253 0
-256 252 0
-194 256 0
194 -256 0
-189 251 0
189 -251 0
-182 246 0
182 -246 0
-177 241 0
177 -241 0
-95 96 0
95 -96 0
-186 80 0
186 -80 0
-186 230 0
-80 161 0
-82 227 0
82 -227 0
-81 224 0
81 -224 0
-186 223 0
220 222 0
219 221 0
186 -174 173 -177 0
-2 218 0
2 -218 0
-3 209 0
3 -209 0
-4 206 0
4 -206 0
-13 197 0
13 -197 0
-11 192 0
11 -192 0
-10 185 0
10 -185 0
-5 179 0
5 -179 0
-29 172 0
29 -172 0
-16 170 0
16 -170 0
-17 162 0
17 -162 0
-19 152 0
19 -152 0
-20 147 0
20 -147 0
-48 138 0
48 -138 0
-46 125 0
46 -125 0
-44 112 0
44 -112 0
-50 99 0
50 -99 0
72 66 0
